Normalized Data/p01_4_normalized_splitx10_0.vrp
NAME:p01_4_NORMALIZED_splitx10_
BEST_KNOWN: 0
COMMENT: 0
DIMENSION: 214
CAPACITY: 1000
EDGE_WEIGHT_FORMAT: FUNCTION
EDGE_WEIGHT_TYPE: EXACT_2D
NODE_COORD_SECTION
1 0.00000 0.00000
2 42 -34
3 42 -34
4 42 -34
5 42 -34
6 -32 -11
7 -32 -11
8 -32 -11
9 -32 -11
10 -32 -11
11 -29 1
12 -29 1
13 -29 1
14 32 42
15 32 42
16 32 42
17 32 42
18 32 42
19 32 42
20 -44 -1
21 -44 -1
22 -44 -1
23 -44 -1
24 -44 -1
25 -45 13
26 -45 13
27 15 39
28 15 39
29 15 39
30 44 50
31 44 50
32 44 50
33 44 50
34 44 50
35 44 50
36 3 7
37 3 7
38 3 7
39 43 37
40 43 37
41 43 37
42 -33 -41
43 -33 -41
44 -33 -41
45 -33 -41
46 -33 -41
47 -33 -41
48 23 29
49 23 29
50 23 29
51 40 36
52 40 36
53 -34 45
54 -34 45
55 -34 45
56 -34 45
57 27 -10
58 27 -10
59 27 -10
60 27 -10
61 -23 -12
62 -23 -12
63 -23 -12
64 -23 -12
65 -24 -6
66 -24 -6
67 -24 -6
68 -24 -6
69 -24 -6
70 -24 -6
71 44 -34
72 44 -34
73 44 -34
74 44 -34
75 44 -34
76 44 -34
77 -50 49
78 -50 49
79 -50 49
80 -25 -19
81 -25 -19
82 -25 -19
83 -25 -19
84 -25 -19
85 -31 -6
86 -31 -6
87 -31 -6
88 -31 -6
89 -31 -6
90 40 26
91 40 26
92 40 26
93 -33 -1
94 -33 -1
95 -33 -1
96 -33 -1
97 -16 19
98 -16 19
99 -16 19
100 -16 19
101 -16 19
102 -16 19
103 -16 19
104 32 6
105 32 6
106 32 6
107 32 6
108 32 6
109 25 8
110 25 8
111 25 8
112 25 8
113 25 8
114 -24 -34
115 -24 -34
116 -24 -34
117 36 -7
118 36 -7
119 36 -7
120 36 -7
121 13 16
122 13 16
123 13 16
124 13 16
125 42 20
126 42 20
127 42 20
128 42 20
129 42 20
130 42 20
131 -9 -21
132 -9 -21
133 -9 -21
134 -5 2
135 -5 2
136 -5 2
137 45 0
138 45 0
139 45 0
140 45 0
141 -26 -36
142 -26 -36
143 -26 -36
144 -26 -36
145 -26 -36
146 44 -37
147 44 -37
148 44 -37
149 44 -37
150 44 -37
151 44 -37
152 44 -37
153 38 24
154 38 24
155 15 -8
156 15 -8
157 15 -8
158 15 -8
159 15 -8
160 15 -8
161 26 21
162 26 21
163 26 21
164 26 21
165 -31 -28
166 -31 -28
167 -31 -28
168 -31 -28
169 -31 -28
170 -31 -28
171 -12 -46
172 -12 -46
173 -12 -46
174 -12 -46
175 10 -12
176 10 -12
177 10 -12
178 10 -12
179 -44 3
180 -44 3
181 -44 3
182 -44 3
183 -44 3
184 43 -37
185 43 -37
186 19 -4
187 19 -4
188 19 -4
189 19 -4
190 19 -4
191 19 -4
192 9 11
193 9 11
194 -44 2
195 -44 2
196 -44 2
197 -36 -4
198 -36 -4
199 -36 -4
200 -36 -4
201 -36 -4
202 -15 -23
203 -15 -23
204 -15 -23
205 -15 -23
206 -15 -23
207 -15 -23
208 32 43
209 32 43
210 32 43
211 32 43
212 13 -23
213 13 -23
214 13 -23
DEMAND_SECTION
1 0
2 200
3 100
4 10
5 10
6 100
7 50
8 10
9 10
10 10
11 100
12 50
13 10
14 200
15 200
16 10
17 10
18 10
19 10
20 200
21 200
22 10
23 10
24 10
25 200
26 10
27 100
28 10
29 10
30 100
31 50
32 10
33 10
34 10
35 10
36 100
37 50
38 10
39 200
40 100
41 10
42 200
43 100
44 50
45 10
46 10
47 10
48 200
49 200
50 50
51 200
52 200
53 200
54 10
55 10
56 10
57 200
58 50
59 10
60 10
61 200
62 200
63 50
64 10
65 200
66 200
67 50
68 10
69 10
70 10
71 200
72 50
73 10
74 10
75 10
76 10
77 200
78 50
79 10
80 200
81 100
82 10
83 10
84 10
85 200
86 50
87 10
88 10
89 10
90 200
91 100
92 50
93 200
94 200
95 50
96 10
97 200
98 100
99 50
100 10
101 10
102 10
103 10
104 200
105 200
106 10
107 10
108 10
109 200
110 100
111 10
112 10
113 10
114 200
115 100
116 10
117 200
118 10
119 10
120 10
121 200
122 200
123 50
124 10
125 200
126 200
127 10
128 10
129 10
130 10
131 200
132 100
133 50
134 200
135 50
136 10
137 200
138 100
139 10
140 10
141 100
142 50
143 10
144 10
145 10
146 200
147 200
148 50
149 10
150 10
151 10
152 10
153 200
154 50
155 200
156 200
157 10
158 10
159 10
160 10
161 100
162 50
163 10
164 10
165 200
166 200
167 50
168 10
169 10
170 10
171 200
172 200
173 50
174 10
175 200
176 100
177 10
178 10
179 200
180 10
181 10
182 10
183 10
184 100
185 50
186 100
187 50
188 10
189 10
190 10
191 10
192 200
193 100
194 200
195 100
196 10
197 100
198 50
199 10
200 10
201 10
202 200
203 100
204 50
205 10
206 10
207 10
208 200
209 100
210 50
211 10
212 200
213 200
214 50
DEPOT_SECTION
1
-1
EOF