Normalized Data/p01_4_normalized_splitx10_0.sol
213 -3 1 4 2 74 72 75 148 151 146 150 149 147 145 184 183 -8 7 6 5 9 200 199 198 197 22 21 19 20 23 194 195 193 -11 12 10 94 92 95 93 196 88 85 84 86 87 -18 15 13 17 14 16 210 209 207 208 26 27 28 -35 37 36 123 120 122 121 192 191 -49 48 47 160 163 162 161 110 112 111 109 108 -50 51 33 29 34 30 31 32 40 38 39 153 -52 54 55 53 76 78 77 24 25 179 181 182 180 178 -58 59 56 57 71 70 73 213 211 212 -61 62 63 60 64 65 68 67 66 69 -82 81 80 83 79 201 203 204 206 132 130 131 -96 97 99 101 98 100 102 -107 105 106 104 103 138 136 137 139 119 117 118 116 -115 113 114 141 140 144 143 142 173 171 172 170 -126 124 128 129 127 125 91 89 90 152 -133 135 134 -165 164 169 166 167 168 44 43 45 41 46 42 202 205 -176 177 175 174 157 156 154 155 158 159 188 186 185 190 189 187 0 





OBJ=
1597.972
BEST_KNOWN=
0.000